c 5.cnf
p cnf 125 320
-24 0
-23 0
-22 0
-21 0
-20 0
-1 -26 0
-1 -51 0
-1 -76 0
-1 -101 0
-26 -51 0
-26 -76 0
-26 -101 0
-51 -76 0
-51 -101 0
-76 -101 0
-2 -27 0
-2 -52 0
-2 -77 0
-2 -102 0
-27 -52 0
-27 -77 0
-27 -102 0
-52 -77 0
-52 -102 0
-77 -102 0
-3 -28 0
-3 -53 0
-3 -78 0
-3 -103 0
-28 -53 0
-28 -78 0
-28 -103 0
-53 -78 0
-53 -103 0
-78 -103 0
-4 -29 0
-4 -54 0
-4 -79 0
-4 -104 0
-29 -54 0
-29 -79 0
-29 -104 0
-54 -79 0
-54 -104 0
-79 -104 0
-5 -30 0
-5 -55 0
-5 -80 0
-5 -105 0
-30 -55 0
-30 -80 0
-30 -105 0
-55 -80 0
-55 -105 0
-80 -105 0
-6 -31 0
-6 -56 0
-6 -81 0
-6 -106 0
-31 -56 0
-31 -81 0
-31 -106 0
-56 -81 0
-56 -106 0
-81 -106 0
-7 -32 0
-7 -57 0
-7 -82 0
-7 -107 0
-32 -57 0
-32 -82 0
-32 -107 0
-57 -82 0
-57 -107 0
-82 -107 0
-8 -33 0
-8 -58 0
-8 -83 0
-8 -108 0
-33 -58 0
-33 -83 0
-33 -108 0
-58 -83 0
-58 -108 0
-83 -108 0
-9 -34 0
-9 -59 0
-9 -84 0
-9 -109 0
-34 -59 0
-34 -84 0
-34 -109 0
-59 -84 0
-59 -109 0
-84 -109 0
-10 -35 0
-10 -60 0
-10 -85 0
-10 -110 0
-35 -60 0
-35 -85 0
-35 -110 0
-60 -85 0
-60 -110 0
-85 -110 0
-11 -36 0
-11 -61 0
-11 -86 0
-11 -111 0
-36 -61 0
-36 -86 0
-36 -111 0
-61 -86 0
-61 -111 0
-86 -111 0
-12 -37 0
-12 -62 0
-12 -87 0
-12 -112 0
-37 -62 0
-37 -87 0
-37 -112 0
-62 -87 0
-62 -112 0
-87 -112 0
-13 -38 0
-13 -63 0
-13 -88 0
-13 -113 0
-38 -63 0
-38 -88 0
-38 -113 0
-63 -88 0
-63 -113 0
-88 -113 0
-14 -39 0
-14 -64 0
-14 -89 0
-14 -114 0
-39 -64 0
-39 -89 0
-39 -114 0
-64 -89 0
-64 -114 0
-89 -114 0
-15 -40 0
-15 -65 0
-15 -90 0
-15 -115 0
-40 -65 0
-40 -90 0
-40 -115 0
-65 -90 0
-65 -115 0
-90 -115 0
-16 -41 0
-16 -66 0
-16 -91 0
-16 -116 0
-41 -66 0
-41 -91 0
-41 -116 0
-66 -91 0
-66 -116 0
-91 -116 0
-17 -42 0
-17 -67 0
-17 -92 0
-17 -117 0
-42 -67 0
-42 -92 0
-42 -117 0
-67 -92 0
-67 -117 0
-92 -117 0
-18 -43 0
-18 -68 0
-18 -93 0
-18 -118 0
-43 -68 0
-43 -93 0
-43 -118 0
-68 -93 0
-68 -118 0
-93 -118 0
-19 -44 0
-19 -69 0
-19 -94 0
-19 -119 0
-44 -69 0
-44 -94 0
-44 -119 0
-69 -94 0
-69 -119 0
-94 -119 0
-20 -45 0
-20 -70 0
-20 -95 0
-20 -120 0
-45 -70 0
-45 -95 0
-45 -120 0
-70 -95 0
-70 -120 0
-95 -120 0
-21 -46 0
-21 -71 0
-21 -96 0
-21 -121 0
-46 -71 0
-46 -96 0
-46 -121 0
-71 -96 0
-71 -121 0
-96 -121 0
-22 -47 0
-22 -72 0
-22 -97 0
-22 -122 0
-47 -72 0
-47 -97 0
-47 -122 0
-72 -97 0
-72 -122 0
-97 -122 0
-23 -48 0
-23 -73 0
-23 -98 0
-23 -123 0
-48 -73 0
-48 -98 0
-48 -123 0
-73 -98 0
-73 -123 0
-98 -123 0
-24 -49 0
-24 -74 0
-24 -99 0
-24 -124 0
-49 -74 0
-49 -99 0
-49 -124 0
-74 -99 0
-74 -124 0
-99 -124 0
-25 -50 0
-25 -75 0
-25 -100 0
-25 -125 0
-50 -75 0
-50 -100 0
-50 -125 0
-75 -100 0
-75 -125 0
-100 -125 0
1 6 11 16 21 0
26 31 36 41 46 0
51 56 61 66 71 0
76 81 86 91 96 0
101 106 111 116 121 0
2 7 12 17 22 0
27 32 37 42 47 0
52 57 62 67 72 0
77 82 87 92 97 0
102 107 112 117 122 0
3 8 13 18 23 0
28 33 38 43 48 0
53 58 63 68 73 0
78 83 88 93 98 0
103 108 113 118 123 0
4 9 14 19 24 0
29 34 39 44 49 0
54 59 64 69 74 0
79 84 89 94 99 0
104 109 114 119 124 0
5 10 15 20 25 0
30 35 40 45 50 0
55 60 65 70 75 0
80 85 90 95 100 0
105 110 115 120 125 0
1 2 3 4 5 0
26 27 28 29 30 0
51 52 53 54 55 0
76 77 78 79 80 0
101 102 103 104 105 0
6 7 8 9 10 0
31 32 33 34 35 0
56 57 58 59 60 0
81 82 83 84 85 0
106 107 108 109 110 0
11 12 13 14 15 0
36 37 38 39 40 0
61 62 63 64 65 0
86 87 88 89 90 0
111 112 113 114 115 0
16 17 18 19 20 0
41 42 43 44 45 0
66 67 68 69 70 0
91 92 93 94 95 0
116 117 118 119 120 0
21 22 23 24 25 0
46 47 48 49 50 0
71 72 73 74 75 0
96 97 98 99 100 0
121 122 123 124 125 0
6 7 8 11 12 13 16 17 18 0
6 7 8 11 12 13 16 17 18 0
6 7 8 11 12 13 16 17 18 0
6 7 8 11 12 13 16 17 18 0
31 32 33 36 37 38 41 42 43 0
31 32 33 36 37 38 41 42 43 0
31 32 33 36 37 38 41 42 43 0
31 32 33 36 37 38 41 42 43 0
56 57 58 61 62 63 66 67 68 0
56 57 58 61 62 63 66 67 68 0
56 57 58 61 62 63 66 67 68 0
56 57 58 61 62 63 66 67 68 0
81 82 83 86 87 88 91 92 93 0
81 82 83 86 87 88 91 92 93 0
81 82 83 86 87 88 91 92 93 0
81 82 83 86 87 88 91 92 93 0
106 107 108 111 112 113 116 117 118 0
106 107 108 111 112 113 116 117 118 0
106 107 108 111 112 113 116 117 118 0
106 107 108 111 112 113 116 117 118 0
